NAME : D-n20-k7
CAPACITY : 100
NODE_COORD_SECTION
1   316   131
2   89   134
3   87   263
4   211   80
5   209   177
6   327   373
7   237   409
8   228   426
9   350   146
10   392   306
11   414   348
12   336   357
13   164   435
14   356   173
15   81   280
16   315   87
17   232   224
18   356   334
19   99   478
20   128   426
DEMAND_SECTION
1   0
2   57
3   17
4   98
5   82
6   5
7   55
8   52
9   87
10   21
11   9
12   81
13   10
14   17
15   98
16   76
17   23
18   56
19   57
20   26
DEPOT_SECTION
    1
    -1
EOF